param bias_1:=
1 -1.5993764e-03  
2 1.5842086e-03  
3 9.1546599e-04  
4 6.1487175e-05
5 -5.4973643e-04  
6 2.7095852e-03  
7 1.5602008e-03  
8 7.3724525e-04
9  8.3429677e-06 
10 -8.6893897e-06  
11 8.0423272e-04  
12 3.4193427e-03
13  1.3294573e-03 
14 -4.2469562e-03  
15 1.1862431e-03  
16 6.7702564e-04
;
